1850890
21,51,13,9,17,32,56,43,61,38,50,34,36,52,67,7,49,27,58,15,35,14,1,26,8,57,16,44,64,3,47,19,12,0,23,60,2,20,62,46,53,18,41,11,31,55,39,4,59,48,22,5,24,28,40,29,10,65,25,45,54,33,6,37,63,66,42,30